
Gurobi 9.1.0 (win64) logging started Sat Dec 12 22:34:32 2020

Changed value of parameter LogFile to logs/iteration10
   Prev:   Default: 
Gurobi Optimizer version 9.1.0 build v9.1.0rc0 (win64)
Thread count: 4 physical cores, 8 logical processors, using up to 8 threads
Optimize a model with 136 rows, 586 columns and 2338 nonzeros
Model fingerprint: 0x8c6fbe50
Coefficient statistics:
  Matrix range     [1e+00, 1e+00]
  Objective range  [1e+03, 4e+03]
  Bounds range     [0e+00, 0e+00]
  RHS range        [1e+00, 1e+00]
Presolve removed 33 rows and 33 columns
Presolve time: 0.00s
Presolved: 103 rows, 553 columns, 2305 nonzeros

Iteration    Objective       Primal Inf.    Dual Inf.      Time
       0    7.9417083e+04   8.200000e+01   0.000000e+00      0s
     149    1.1273183e+05   0.000000e+00   0.000000e+00      0s

Solved in 149 iterations and 0.00 seconds
Optimal objective  1.127318333e+05

Solutionx[5] 1.000000 
x[24] 1.000000 
x[26] 1.000000 
x[27] 1.000000 
x[28] 0.333333 
x[37] 0.666667 
x[45] 0.333333 
x[47] 0.333333 
x[50] 0.333333 
x[54] 1.000000 
x[55] 1.000000 
x[63] 0.666667 
x[64] 1.000000 
x[65] 0.333333 
x[67] 0.333333 
x[70] 1.000000 
x[71] 1.000000 
x[72] 1.000000 
x[74] 1.000000 
x[76] 1.000000 
x[77] 1.000000 
x[78] 1.000000 
x[79] 0.333333 
x[82] 1.000000 
x[83] 1.000000 
x[94] 0.333333 
x[100] 0.333333 
x[101] 1.000000 
x[102] 1.000000 
x[103] 1.000000 
x[104] 1.000000 
x[105] 0.666667 
x[107] 1.000000 
x[113] 1.000000 
x[116] 0.333333 
x[117] 0.666667 
x[118] 1.000000 
x[120] 1.000000 
x[121] 1.000000 
x[122] 1.000000 
x[123] 1.000000 
x[124] 1.000000 
x[125] 1.000000 
x[126] 1.000000 
x[127] 1.000000 
x[128] 1.000000 
x[129] 1.000000 
x[130] 1.000000 
x[131] 1.000000 
x[132] 1.000000 
x[133] 1.000000 
x[134] 1.000000 
x[135] 1.000000 
x[595] 0.333333 
x[643] 0.333333 
x[728] 0.333333 
x[2387] 0.333333 
x[2542] 0.333333 
x[2944] 0.333333 
x[3471] 0.666667 
x[5967] 0.333333 
x[8682] 0.333333 
x[20743] 0.333333 
x[29780] 0.333333 
x[9171] 1.000000 
x[1268] 0.666667 
x[8411] 0.333333 
x[25735] 0.333333 
x[27379] 0.333333 
x[664] 0.333333 
x[879] 0.666667 
x[887] 0.666667 
x[1078] 0.333333 
x[1241] 0.333333 
x[6664] 0.666667 
x[3365] 1.000000 
x[17234] 1.000000 
x[15181] 1.000000 
x[30937] 1.000000 
x[3046] 0.333333 
x[8183] 0.666667 
x[27196] 0.666667 
x[21583] 0.333333 
x[15180] 0.333333 
x[17723] 0.333333 
x[26654] 0.333333 
x[10912] 0.333333 
x[32577] 0.666667 
x[21081] 0.333333 
x[7088] 0.666667 

Gurobi 9.1.0 (win64) logging started Sun Dec 13 15:16:50 2020

Changed value of parameter LogFile to logs/iteration10
   Prev:   Default: 
Gurobi Optimizer version 9.1.0 build v9.1.0rc0 (win64)
Thread count: 4 physical cores, 8 logical processors, using up to 8 threads
Optimize a model with 136 rows, 586 columns and 2338 nonzeros
Model fingerprint: 0x8c6fbe50
Coefficient statistics:
  Matrix range     [1e+00, 1e+00]
  Objective range  [1e+03, 4e+03]
  Bounds range     [0e+00, 0e+00]
  RHS range        [1e+00, 1e+00]
Presolve removed 33 rows and 33 columns
Presolve time: 0.00s
Presolved: 103 rows, 553 columns, 2305 nonzeros

Iteration    Objective       Primal Inf.    Dual Inf.      Time
       0    7.9417083e+04   8.200000e+01   0.000000e+00      0s
     149    1.1273183e+05   0.000000e+00   0.000000e+00      0s

Solved in 149 iterations and 0.00 seconds
Optimal objective  1.127318333e+05

Solutionx[5] 1.000000 
x[24] 1.000000 
x[26] 1.000000 
x[27] 1.000000 
x[28] 0.333333 
x[37] 0.666667 
x[45] 0.333333 
x[47] 0.333333 
x[50] 0.333333 
x[54] 1.000000 
x[55] 1.000000 
x[63] 0.666667 
x[64] 1.000000 
x[65] 0.333333 
x[67] 0.333333 
x[70] 1.000000 
x[71] 1.000000 
x[72] 1.000000 
x[74] 1.000000 
x[76] 1.000000 
x[77] 1.000000 
x[78] 1.000000 
x[79] 0.333333 
x[82] 1.000000 
x[83] 1.000000 
x[94] 0.333333 
x[100] 0.333333 
x[101] 1.000000 
x[102] 1.000000 
x[103] 1.000000 
x[104] 1.000000 
x[105] 0.666667 
x[107] 1.000000 
x[113] 1.000000 
x[116] 0.333333 
x[117] 0.666667 
x[118] 1.000000 
x[120] 1.000000 
x[121] 1.000000 
x[122] 1.000000 
x[123] 1.000000 
x[124] 1.000000 
x[125] 1.000000 
x[126] 1.000000 
x[127] 1.000000 
x[128] 1.000000 
x[129] 1.000000 
x[130] 1.000000 
x[131] 1.000000 
x[132] 1.000000 
x[133] 1.000000 
x[134] 1.000000 
x[135] 1.000000 
x[595] 0.333333 
x[643] 0.333333 
x[728] 0.333333 
x[2387] 0.333333 
x[2542] 0.333333 
x[2944] 0.333333 
x[3471] 0.666667 
x[5967] 0.333333 
x[8682] 0.333333 
x[20743] 0.333333 
x[29780] 0.333333 
x[9171] 1.000000 
x[1268] 0.666667 
x[8411] 0.333333 
x[25735] 0.333333 
x[27379] 0.333333 
x[664] 0.333333 
x[879] 0.666667 
x[887] 0.666667 
x[1078] 0.333333 
x[1241] 0.333333 
x[6664] 0.666667 
x[3365] 1.000000 
x[17234] 1.000000 
x[15181] 1.000000 
x[30937] 1.000000 
x[3046] 0.333333 
x[8183] 0.666667 
x[27196] 0.666667 
x[21583] 0.333333 
x[15180] 0.333333 
x[17723] 0.333333 
x[26654] 0.333333 
x[10912] 0.333333 
x[32577] 0.666667 
x[21081] 0.333333 
x[7088] 0.666667 

Gurobi 9.1.0 (win64) logging started Sun Dec 13 15:18:36 2020

Changed value of parameter LogFile to logs/iteration10
   Prev:   Default: 
Gurobi Optimizer version 9.1.0 build v9.1.0rc0 (win64)
Thread count: 4 physical cores, 8 logical processors, using up to 8 threads
Optimize a model with 136 rows, 586 columns and 2338 nonzeros
Model fingerprint: 0x8c6fbe50
Coefficient statistics:
  Matrix range     [1e+00, 1e+00]
  Objective range  [1e+03, 4e+03]
  Bounds range     [0e+00, 0e+00]
  RHS range        [1e+00, 1e+00]
Presolve removed 33 rows and 33 columns
Presolve time: 0.00s
Presolved: 103 rows, 553 columns, 2305 nonzeros

Iteration    Objective       Primal Inf.    Dual Inf.      Time
       0    7.9417083e+04   8.200000e+01   0.000000e+00      0s
     149    1.1273183e+05   0.000000e+00   0.000000e+00      0s

Solved in 149 iterations and 0.00 seconds
Optimal objective  1.127318333e+05

Solutionx[5] 1.000000 
x[24] 1.000000 
x[26] 1.000000 
x[27] 1.000000 
x[28] 0.333333 
x[37] 0.666667 
x[45] 0.333333 
x[47] 0.333333 
x[50] 0.333333 
x[54] 1.000000 
x[55] 1.000000 
x[63] 0.666667 
x[64] 1.000000 
x[65] 0.333333 
x[67] 0.333333 
x[70] 1.000000 
x[71] 1.000000 
x[72] 1.000000 
x[74] 1.000000 
x[76] 1.000000 
x[77] 1.000000 
x[78] 1.000000 
x[79] 0.333333 
x[82] 1.000000 
x[83] 1.000000 
x[94] 0.333333 
x[100] 0.333333 
x[101] 1.000000 
x[102] 1.000000 
x[103] 1.000000 
x[104] 1.000000 
x[105] 0.666667 
x[107] 1.000000 
x[113] 1.000000 
x[116] 0.333333 
x[117] 0.666667 
x[118] 1.000000 
x[120] 1.000000 
x[121] 1.000000 
x[122] 1.000000 
x[123] 1.000000 
x[124] 1.000000 
x[125] 1.000000 
x[126] 1.000000 
x[127] 1.000000 
x[128] 1.000000 
x[129] 1.000000 
x[130] 1.000000 
x[131] 1.000000 
x[132] 1.000000 
x[133] 1.000000 
x[134] 1.000000 
x[135] 1.000000 
x[595] 0.333333 
x[643] 0.333333 
x[728] 0.333333 
x[2387] 0.333333 
x[2542] 0.333333 
x[2944] 0.333333 
x[3471] 0.666667 
x[5967] 0.333333 
x[8682] 0.333333 
x[20743] 0.333333 
x[29780] 0.333333 
x[9171] 1.000000 
x[1268] 0.666667 
x[8411] 0.333333 
x[25735] 0.333333 
x[27379] 0.333333 
x[664] 0.333333 
x[879] 0.666667 
x[887] 0.666667 
x[1078] 0.333333 
x[1241] 0.333333 
x[6664] 0.666667 
x[3365] 1.000000 
x[17234] 1.000000 
x[15181] 1.000000 
x[30937] 1.000000 
x[3046] 0.333333 
x[8183] 0.666667 
x[27196] 0.666667 
x[21583] 0.333333 
x[15180] 0.333333 
x[17723] 0.333333 
x[26654] 0.333333 
x[10912] 0.333333 
x[32577] 0.666667 
x[21081] 0.333333 
x[7088] 0.666667 

Gurobi 9.1.0 (win64) logging started Sun Dec 13 15:22:11 2020

Changed value of parameter LogFile to logs/iteration10
   Prev:   Default: 
Gurobi Optimizer version 9.1.0 build v9.1.0rc0 (win64)
Thread count: 4 physical cores, 8 logical processors, using up to 8 threads
Optimize a model with 136 rows, 586 columns and 2338 nonzeros
Model fingerprint: 0x8c6fbe50
Coefficient statistics:
  Matrix range     [1e+00, 1e+00]
  Objective range  [1e+03, 4e+03]
  Bounds range     [0e+00, 0e+00]
  RHS range        [1e+00, 1e+00]
Presolve removed 33 rows and 33 columns
Presolve time: 0.00s
Presolved: 103 rows, 553 columns, 2305 nonzeros

Iteration    Objective       Primal Inf.    Dual Inf.      Time
       0    7.9417083e+04   8.200000e+01   0.000000e+00      0s
     149    1.1273183e+05   0.000000e+00   0.000000e+00      0s

Solved in 149 iterations and 0.00 seconds
Optimal objective  1.127318333e+05

Solutionx[5] 1.000000 
x[24] 1.000000 
x[26] 1.000000 
x[27] 1.000000 
x[28] 0.333333 
x[37] 0.666667 
x[45] 0.333333 
x[47] 0.333333 
x[50] 0.333333 
x[54] 1.000000 
x[55] 1.000000 
x[63] 0.666667 
x[64] 1.000000 
x[65] 0.333333 
x[67] 0.333333 
x[70] 1.000000 
x[71] 1.000000 
x[72] 1.000000 
x[74] 1.000000 
x[76] 1.000000 
x[77] 1.000000 
x[78] 1.000000 
x[79] 0.333333 
x[82] 1.000000 
x[83] 1.000000 
x[94] 0.333333 
x[100] 0.333333 
x[101] 1.000000 
x[102] 1.000000 
x[103] 1.000000 
x[104] 1.000000 
x[105] 0.666667 
x[107] 1.000000 
x[113] 1.000000 
x[116] 0.333333 
x[117] 0.666667 
x[118] 1.000000 
x[120] 1.000000 
x[121] 1.000000 
x[122] 1.000000 
x[123] 1.000000 
x[124] 1.000000 
x[125] 1.000000 
x[126] 1.000000 
x[127] 1.000000 
x[128] 1.000000 
x[129] 1.000000 
x[130] 1.000000 
x[131] 1.000000 
x[132] 1.000000 
x[133] 1.000000 
x[134] 1.000000 
x[135] 1.000000 
x[595] 0.333333 
x[643] 0.333333 
x[728] 0.333333 
x[2387] 0.333333 
x[2542] 0.333333 
x[2944] 0.333333 
x[3471] 0.666667 
x[5967] 0.333333 
x[8682] 0.333333 
x[20743] 0.333333 
x[29780] 0.333333 
x[9171] 1.000000 
x[1268] 0.666667 
x[8411] 0.333333 
x[25735] 0.333333 
x[27379] 0.333333 
x[664] 0.333333 
x[879] 0.666667 
x[887] 0.666667 
x[1078] 0.333333 
x[1241] 0.333333 
x[6664] 0.666667 
x[3365] 1.000000 
x[17234] 1.000000 
x[15181] 1.000000 
x[30937] 1.000000 
x[3046] 0.333333 
x[8183] 0.666667 
x[27196] 0.666667 
x[21583] 0.333333 
x[15180] 0.333333 
x[17723] 0.333333 
x[26654] 0.333333 
x[10912] 0.333333 
x[32577] 0.666667 
x[21081] 0.333333 
x[7088] 0.666667 

Gurobi 9.1.0 (win64) logging started Sun Dec 13 15:26:15 2020

Changed value of parameter LogFile to logs/iteration10
   Prev:   Default: 
Gurobi Optimizer version 9.1.0 build v9.1.0rc0 (win64)
Thread count: 4 physical cores, 8 logical processors, using up to 8 threads
Optimize a model with 136 rows, 586 columns and 2338 nonzeros
Model fingerprint: 0x8c6fbe50
Coefficient statistics:
  Matrix range     [1e+00, 1e+00]
  Objective range  [1e+03, 4e+03]
  Bounds range     [0e+00, 0e+00]
  RHS range        [1e+00, 1e+00]
Presolve removed 33 rows and 33 columns
Presolve time: 0.00s
Presolved: 103 rows, 553 columns, 2305 nonzeros

Iteration    Objective       Primal Inf.    Dual Inf.      Time
       0    7.9417083e+04   8.200000e+01   0.000000e+00      0s
     149    1.1273183e+05   0.000000e+00   0.000000e+00      0s

Solved in 149 iterations and 0.00 seconds
Optimal objective  1.127318333e+05

Solutionx[5] 1.000000 
x[24] 1.000000 
x[26] 1.000000 
x[27] 1.000000 
x[28] 0.333333 
x[37] 0.666667 
x[45] 0.333333 
x[47] 0.333333 
x[50] 0.333333 
x[54] 1.000000 
x[55] 1.000000 
x[63] 0.666667 
x[64] 1.000000 
x[65] 0.333333 
x[67] 0.333333 
x[70] 1.000000 
x[71] 1.000000 
x[72] 1.000000 
x[74] 1.000000 
x[76] 1.000000 
x[77] 1.000000 
x[78] 1.000000 
x[79] 0.333333 
x[82] 1.000000 
x[83] 1.000000 
x[94] 0.333333 
x[100] 0.333333 
x[101] 1.000000 
x[102] 1.000000 
x[103] 1.000000 
x[104] 1.000000 
x[105] 0.666667 
x[107] 1.000000 
x[113] 1.000000 
x[116] 0.333333 
x[117] 0.666667 
x[118] 1.000000 
x[120] 1.000000 
x[121] 1.000000 
x[122] 1.000000 
x[123] 1.000000 
x[124] 1.000000 
x[125] 1.000000 
x[126] 1.000000 
x[127] 1.000000 
x[128] 1.000000 
x[129] 1.000000 
x[130] 1.000000 
x[131] 1.000000 
x[132] 1.000000 
x[133] 1.000000 
x[134] 1.000000 
x[135] 1.000000 
x[595] 0.333333 
x[643] 0.333333 
x[728] 0.333333 
x[2387] 0.333333 
x[2542] 0.333333 
x[2944] 0.333333 
x[3471] 0.666667 
x[5967] 0.333333 
x[8682] 0.333333 
x[20743] 0.333333 
x[29780] 0.333333 
x[9171] 1.000000 
x[1268] 0.666667 
x[8411] 0.333333 
x[25735] 0.333333 
x[27379] 0.333333 
x[664] 0.333333 
x[879] 0.666667 
x[887] 0.666667 
x[1078] 0.333333 
x[1241] 0.333333 
x[6664] 0.666667 
x[3365] 1.000000 
x[17234] 1.000000 
x[15181] 1.000000 
x[30937] 1.000000 
x[3046] 0.333333 
x[8183] 0.666667 
x[27196] 0.666667 
x[21583] 0.333333 
x[15180] 0.333333 
x[17723] 0.333333 
x[26654] 0.333333 
x[10912] 0.333333 
x[32577] 0.666667 
x[21081] 0.333333 
x[7088] 0.666667 

Gurobi 9.1.0 (win64) logging started Sun Dec 13 13:24:50 2020

Changed value of parameter LogFile to logs/iteration10
   Prev:   Default: 
Gurobi Optimizer version 9.1.0 build v9.1.0rc0 (win64)
Thread count: 4 physical cores, 8 logical processors, using up to 8 threads
Optimize a model with 136 rows, 586 columns and 2338 nonzeros
Model fingerprint: 0x8c6fbe50
Coefficient statistics:
  Matrix range     [1e+00, 1e+00]
  Objective range  [1e+03, 4e+03]
  Bounds range     [0e+00, 0e+00]
  RHS range        [1e+00, 1e+00]
Presolve removed 33 rows and 33 columns
Presolve time: 0.00s
Presolved: 103 rows, 553 columns, 2305 nonzeros

Iteration    Objective       Primal Inf.    Dual Inf.      Time
       0    7.9417083e+04   8.200000e+01   0.000000e+00      0s
     149    1.1273183e+05   0.000000e+00   0.000000e+00      0s

Solved in 149 iterations and 0.00 seconds
Optimal objective  1.127318333e+05

Solutionx[5] 1.000000 
x[24] 1.000000 
x[26] 1.000000 
x[27] 1.000000 
x[28] 0.333333 
x[37] 0.666667 
x[45] 0.333333 
x[47] 0.333333 
x[50] 0.333333 
x[54] 1.000000 
x[55] 1.000000 
x[63] 0.666667 
x[64] 1.000000 
x[65] 0.333333 
x[67] 0.333333 
x[70] 1.000000 
x[71] 1.000000 
x[72] 1.000000 
x[74] 1.000000 
x[76] 1.000000 
x[77] 1.000000 
x[78] 1.000000 
x[79] 0.333333 
x[82] 1.000000 
x[83] 1.000000 
x[94] 0.333333 
x[100] 0.333333 
x[101] 1.000000 
x[102] 1.000000 
x[103] 1.000000 
x[104] 1.000000 
x[105] 0.666667 
x[107] 1.000000 
x[113] 1.000000 
x[116] 0.333333 
x[117] 0.666667 
x[118] 1.000000 
x[120] 1.000000 
x[121] 1.000000 
x[122] 1.000000 
x[123] 1.000000 
x[124] 1.000000 
x[125] 1.000000 
x[126] 1.000000 
x[127] 1.000000 
x[128] 1.000000 
x[129] 1.000000 
x[130] 1.000000 
x[131] 1.000000 
x[132] 1.000000 
x[133] 1.000000 
x[134] 1.000000 
x[135] 1.000000 
x[595] 0.333333 
x[643] 0.333333 
x[728] 0.333333 
x[2387] 0.333333 
x[2542] 0.333333 
x[2944] 0.333333 
x[3471] 0.666667 
x[5967] 0.333333 
x[8682] 0.333333 
x[20743] 0.333333 
x[29780] 0.333333 
x[9171] 1.000000 
x[1268] 0.666667 
x[8411] 0.333333 
x[25735] 0.333333 
x[27379] 0.333333 
x[664] 0.333333 
x[879] 0.666667 
x[887] 0.666667 
x[1078] 0.333333 
x[1241] 0.333333 
x[6664] 0.666667 
x[3365] 1.000000 
x[17234] 1.000000 
x[15181] 1.000000 
x[30937] 1.000000 
x[3046] 0.333333 
x[8183] 0.666667 
x[27196] 0.666667 
x[21583] 0.333333 
x[15180] 0.333333 
x[17723] 0.333333 
x[26654] 0.333333 
x[10912] 0.333333 
x[32577] 0.666667 
x[21081] 0.333333 
x[7088] 0.666667 
